NAME : random_19
COMMENT : 50 random nodes
TYPE : TSP
DIMENSION : 50
EDGE_WEIGHT_TYPE : EUC_2D
NODE_COORD_SECTION
1 820 853
2 539 73
3 50 360
4 222 554
5 484 46
6 834 733
7 608 434
8 113 373
9 71 722
10 761 349
11 363 871
12 413 342
13 115 146
14 847 570
15 380 169
16 794 962
17 830 461
18 415 272
19 632 918
20 287 939
21 556 276
22 942 99
23 331 170
24 766 236
25 2 912
26 621 329
27 497 410
28 852 449
29 621 689
30 15 998
31 996 250
32 219 422
33 820 841
34 96 813
35 479 29
36 381 116
37 983 911
38 915 358
39 941 593
40 527 356
41 608 423
42 737 243
43 355 337
44 7 549
45 439 599
46 560 457
47 248 428
48 831 599
49 292 95
50 323 794
EOF